decision_x1=[0,2];
decision_x2=[0,2];
decision_x3=[0,2];
decision_x4=[0,2];
decision_x5=[0,2];
decision_x6=[0,2];
decision_x7=[0,2];
decision_x8=[0,2];
decision_x9=[0,2];
decision_x10=[0,2];
random_y1=[0,2];
random_y2=[0,2];
random_y3=[0,2];
random_y4=[0,2];
constraint_x3_x1=[
0,0,6.8|
0,1,9.1|
0,2,9.2|
1,0,6.7|
1,1,5.7|
1,2,0.67|
2,0,9.4|
2,1,1.4|
2,2,8.6|
];
constraint_x4_x1=[
0,0,0.04|
0,1,5.8|
0,2,1.7|
1,0,1.3|
1,1,2.1|
1,2,5.4|
2,0,6|
2,1,0.028|
2,2,7.2|
];
constraint_x4_x2=[
0,0,7.9|
0,1,4.2|
0,2,8|
1,0,8.1|
1,1,4.9|
1,2,0.61|
2,0,5.3|
2,1,3.9|
2,2,8.1|
];
constraint_x4_x3=[
0,0,3.9|
0,1,1.7|
0,2,6.1|
1,0,4.8|
1,1,0.51|
1,2,5.1|
2,0,7.4|
2,1,1|
2,2,5.3|
];
constraint_x5_x1=[
0,0,0.12|
0,1,8.3|
0,2,9|
1,0,6.2|
1,1,2.4|
1,2,3.2|
2,0,5|
2,1,1.9|
2,2,4.2|
];
constraint_x5_x4=[
0,0,2.3|
0,1,2.7|
0,2,9.8|
1,0,9.8|
1,1,0.37|
1,2,1.8|
2,0,4.7|
2,1,5.2|
2,2,5.4|
];
constraint_x6_x3=[
0,0,4|
0,1,8.7|
0,2,7.6|
1,0,6.5|
1,1,5.8|
1,2,7.1|
2,0,5|
2,1,2.9|
2,2,2.8|
];
constraint_x6_x4=[
0,0,5.2|
0,1,7.6|
0,2,9.9|
1,0,6.7|
1,1,4.8|
1,2,9.1|
2,0,8.4|
2,1,9.9|
2,2,0.37|
];
constraint_x7_x3=[
0,0,3.4|
0,1,6.4|
0,2,8.6|
1,0,3.1|
1,1,5.5|
1,2,7|
2,0,8.5|
2,1,0.53|
2,2,2.2|
];
constraint_x7_x5=[
0,0,7.8|
0,1,5.2|
0,2,8.9|
1,0,9.4|
1,1,2.8|
1,2,1.2|
2,0,9.6|
2,1,7.4|
2,2,9.5|
];
constraint_x8_x3=[
0,0,4.7|
0,1,8.4|
0,2,7.5|
1,0,4.1|
1,1,4.6|
1,2,0.98|
2,0,6.2|
2,1,2.2|
2,2,3.6|
];
constraint_x8_x4=[
0,0,8|
0,1,3.6|
0,2,7.9|
1,0,10|
1,1,8.1|
1,2,8.1|
2,0,7.7|
2,1,2.8|
2,2,0.45|
];
constraint_x8_x6=[
0,0,9.4|
0,1,5.8|
0,2,3.4|
1,0,1.4|
1,1,3.1|
1,2,4.3|
2,0,2.1|
2,1,1.3|
2,2,8.1|
];
constraint_x9_x1=[
0,0,0.38|
0,1,9.7|
0,2,6.2|
1,0,9.4|
1,1,6.5|
1,2,9|
2,0,9.7|
2,1,3.4|
2,2,2.3|
];
constraint_x9_x2=[
0,0,5.7|
0,1,3.6|
0,2,9.2|
1,0,4|
1,1,4|
1,2,2.8|
2,0,4.1|
2,1,3.1|
2,2,3|
];
constraint_x9_x4=[
0,0,5.8|
0,1,6.4|
0,2,0.17|
1,0,5.2|
1,1,1.5|
1,2,3.7|
2,0,7.9|
2,1,5.9|
2,2,8.6|
];
constraint_x9_x6=[
0,0,5.4|
0,1,5.4|
0,2,3|
1,0,6|
1,1,2.5|
1,2,3.5|
2,0,1.4|
2,1,9.7|
2,2,3.9|
];
constraint_x9_x7=[
0,0,1.7|
0,1,3.2|
0,2,1.6|
1,0,9.9|
1,1,7.3|
1,2,9.9|
2,0,2.8|
2,1,5|
2,2,9.7|
];
constraint_x10_x1=[
0,0,2.9|
0,1,2.6|
0,2,2.3|
1,0,1.9|
1,1,6.9|
1,2,1.3|
2,0,7.1|
2,1,6.4|
2,2,8|
];
constraint_x10_x2=[
0,0,3.2|
0,1,6|
0,2,3.6|
1,0,8.2|
1,1,5|
1,2,4.1|
2,0,3.5|
2,1,4.5|
2,2,4.4|
];
constraint_x10_x3=[
0,0,5.9|
0,1,6.7|
0,2,4.1|
1,0,0.22|
1,1,1.5|
1,2,5.6|
2,0,1.4|
2,1,1.5|
2,2,7.8|
];
constraint_x10_x4=[
0,0,0.06|
0,1,5.3|
0,2,0.033|
1,0,0.5|
1,1,4.5|
1,2,4.6|
2,0,9|
2,1,1.9|
2,2,5.1|
];
constraint_x10_x8=[
0,0,3.5|
0,1,3.5|
0,2,4.6|
1,0,4.8|
1,1,5.2|
1,2,7.2|
2,0,8.3|
2,1,8.1|
2,2,6|
];
constraint_x1_y1=[
0,0,2.5|
0,1,0.93|
0,2,5|
1,0,1.4|
1,1,9.1|
1,2,3.6|
2,0,7|
2,1,8|
2,2,2.6|
];
constraint_x2_y2=[
0,0,4|
0,1,7.3|
0,2,8.1|
1,0,4.2|
1,1,4.4|
1,2,4|
2,0,8.7|
2,1,5.9|
2,2,0.25|
];
constraint_x3_y3=[
0,0,2.1|
0,1,4.2|
0,2,9.8|
1,0,3.2|
1,1,6.6|
1,2,9.5|
2,0,1.3|
2,1,1.6|
2,2,8.3|
];
constraint_x4_y4=[
0,0,8.8|
0,1,2.7|
0,2,2.8|
1,0,3.6|
1,1,9|
1,2,5.6|
2,0,7.3|
2,1,0.26|
2,2,2.8|
];
initial_distribution_y1=[0.62,0.19,0.19];
initial_distribution_y2=[0.39,0.18,0.43];
initial_distribution_y3=[0.014,0.056,0.93];
initial_distribution_y4=[0.36,0.35,0.3];
transition_y1=[
0.62,0.047,0.33|
0.32,0.28,0.4|
0.19,0.59,0.22|
];
transition_y2=[
0.084,0.72,0.2|
0.47,0.39,0.14|
0.065,0.12,0.81|
];
transition_y3=[
0.55,0.2,0.25|
0.6,0.096,0.31|
0.44,0.15,0.41|
];
transition_y4=[
0.2,0.29,0.51|
0.17,0.38,0.45|
0.012,0.54,0.45|
];
